p cnf 220 50
99 184 -139 0
49 133 -216 0
138 -196 79 0
-146 9 152 0
81 -171 199 0
112 -188 168 0
4 -93 105 0
-209 153 152 0
-200 37 -111 0
-113 149 -98 0
141 216 77 0
150 120 41 0
170 -120 66 0
142 94 -4 0
-72 -103 -28 0
-96 13 175 0
119 -29 192 0
-108 -146 -21 0
-97 151 -110 0
-47 -116 -182 0
-188 -74 190 0
133 194 -80 0
174 -54 147 0
125 -117 6 0
-77 67 175 0
113 -79 -188 0
-171 -82 -57 0
-1 -128 21 0
-206 -74 194 0
10 86 -3 0
-79 159 -123 0
195 -39 -145 0
117 -178 187 0
-74 119 -219 0
138 -127 -70 0
165 -158 102 0
16 117 -65 0
149 -7 -74 0
143 220 -156 0
159 -101 70 0
-15 -49 -151 0
150 -35 -219 0
193 -149 91 0
15 -165 -131 0
101 -168 -50 0
217 -142 213 0
175 67 94 0
-56 -183 -188 0
156 -211 111 0
144 193 97 0
